WARNING: for repeatability, setting FPU to use double precision
============================[ Problem Statistics ]=============================
|                                                                             |
|  Number of variables:         69839                                         |
|  Number of clauses:          275980                                         |
|  Parse time:                   0.06 s                                       |
|                                                                             |
c ============================[ Search Statistics ]==============================
c | Conflicts |          ORIGINAL         |          LEARNT          | Progress |
c |           |    Vars  Clauses Literals |    Limit  Clauses Lit/Cl |          |
c ===============================================================================
c Switched to VSIDS.
c Switched to LRB.
c Switched to VSIDS.
c ===============================================================================
restarts                  : 393
conflicts                 : 94531          (2025 /sec)
decisions                 : 8702291        (0.00 % random) (186406 /sec)
propagations              : 133932869      (2868885 /sec)
conflict literals         : 5424443        (21.37 % deleted)

conflicts w/ DIP found    : 76545          (80.97 % of conflicts)
conflicts w/ dangerous DIP: 0              (0.00 % of conflicts)
conflicts w/ DIP-learning : 6              (0.01 % of conflicts)
decisions on ext vars     : 249            (0.00 % of decisions)
total ext vars            : 3           
tried delete ext vars     : 0           
deleted ext vars          : 0           
max ext vars              : 3           

Memory used               : 76.00 MB
CPU time                  : 46.6846 s
DIP computation time      : 1.05192 s (2.25 % of total time)
ER_sel time               : 0.116636 s
ER_add time               : 3.8e-05 s
ER_delC time              : 0 s
ER_delV time              : 0 s
ER_sub time               : 0.168144 s
ER_stat time              : 0 s

SATISFIABLE
